s = array1d(1..400, [12, 11, 14, 0, 19, 13, 18, 0, 0, 0, 0, 0, 2, 9, 0, 0, 0, 1, 4, 3, 10, 0, 1, 0, 6, 5, 9, 13, 0, 17, 14, 0, 0, 2, 4, 0, 0, 0, 12, 0, 2, 0, 0, 0, 0, 3, 0, 6, 12, 7, 0, 8, 0, 0, 11, 19, 13, 0, 10, 0, 0, 17, 0, 0, 0, 0, 0, 19, 0, 0, 18, 5, 0, 0, 13, 9, 3, 0, 16, 8, 0, 1, 6, 0, 15, 0, 0, 14, 19, 3, 16, 18, 0, 7, 0, 13, 0, 0, 0, 0, 13, 0, 0, 0, 0, 16, 0, 0, 14, 12, 3, 4, 19, 0, 1, 5, 0, 17, 6, 0, 15, 0, 0, 6, 14, 0, 1, 7, 2, 0, 0, 0, 0, 0, 0, 18, 0, 16, 13, 5, 6, 0, 0, 14, 18, 0, 13, 0, 0, 0, 8, 1, 17, 3, 0, 0, 7, 10, 0, 12, 19, 15, 0, 9, 0, 0, 0, 10, 0, 5, 0, 0, 8, 0, 7, 0, 17, 0, 14, 4, 0, 18, 7, 16, 0, 1, 4, 12, 0, 0, 0, 0, 0, 5, 0, 17, 9, 6, 0, 0, 0, 0, 0, 15, 0, 8, 0, 0, 17, 2, 0, 0, 18, 14, 9, 16, 0, 13, 0, 1, 3, 0, 13, 0, 16, 0, 17, 0, 0, 11, 0, 12, 0, 0, 0, 0, 19, 8, 2, 0, 0, 9, 0, 7, 0, 0, 0, 4, 0, 16, 5, 11, 0, 10, 12, 2, 0, 14, 0, 19, 0, 4, 10, 0, 9, 0, 16, 11, 18, 15, 0, 13, 5, 0, 0, 0, 0, 0, 0, 0, 0, 0, 5, 0, 0, 17, 0, 0, 3, 0, 0, 9, 0, 0, 19, 15, 10, 4, 18, 2, 0, 3, 16, 10, 4, 0, 5, 0, 9, 0, 1, 0, 14, 12, 0, 6, 0, 18, 0, 0, 0, 13, 15, 5, 0, 9, 0, 0, 16, 18, 0, 0, 10, 0, 0, 0, 6, 0, 0, 17, 4, 10, 0, 1, 11, 0, 14, 18, 13, 0, 0, 0, 0, 0, 16, 0, 15, 0, 9, 0, 11, 7, 19, 12, 0, 0, 0, 0, 0, 0, 17, 2, 15, 4, 18, 0, 1, 0, 0, 0, 0, 0, 0, 0, 10, 4, 19, 0, 11, 0, 2, 0, 16, 1, 0, 3, 18, 9, 0, 0]);
n = 20;
